s 1
v -1 -3 -4 5 -6 -8 9 10 -12 13 -15 -16 17 18 19 20 -21 -22 24 -25 26 -27 -28 -32 33 -34 35 36 37 -41 -42 43 -46 47 50 -51 -53 54 -55 -57 58 59 60 61 -62 63 -65 -67 70 -71 73 74 76 -78 -79 -80 -81 -82 83 -84 85 87 88 -92 -95 -96 -97 98 -103 104 106 107 -109 110 -111 114 -116 117 -119 123 -125 127 -128 -129 -132 -133 139 140 -142 -144 146 147 150 -153 154 -156 159 160 161 163 164 165 -166 -167 -170 171 -173 176 -177 -178 -181 182 -183 -184 -186 -187 188 189 -190 192 193 194 195 -196 -197 -198 -199 201 -202 203 204 205 -207 208 210 214 215 -219 223 -224 225 226 -227 228 229 231 232 233 234 -235 236 237 238 239 240 -241 242 243 -244 246 -247 -249 -250 251 -252 253 254 259 -260 263 -264 265 266 267 268 269 270 -273 276 278 279 -280 -281 -282 283 284 287 -289 -290 -291 292 293 294 -296 -297 298 299 300 302 -303 304 306 308 -309 310 311 313 314 -315 317 319 320 321 -322 -324 -327 -329 331 -332 -333 334 335 -337 338 -339 -340 341 -342 344 -345 347 348 352 353 -354 -355 357 358 359 -361 -362 -364 366 367 368 369 372 -374 -377 -378 379 -384 -385 386 -387 -388 -389 390 391 392 394 -396 398 -401 -404 -405 406 407 408 -409 -411 -412 413 415 -416 417 418 -419 -420 421 -422 -423 -424 -425 -429 431 -434 435 436 -437 -442 -447 -448 -449 -455 -458 461 462 -465 466 -467 -468 -470 -471 473 -478 -479 480 -481 -484 485 -486 -488 -489 -491 492 495 496 -497 -498 -500 502 -504 505 506 508 -509 510 511 -512 -514 -515 -516 518 519 -520 -521 -522 524 -527 -528 530 -531 532 -534 535 -536 537 -539 542 -543 -545 -546 -547 548 -549 551 552 553 -554 -555 -557 -558 -560 562 -563 -564 565 -566 567 -568 569 -571 -572 -573 -574 -575 -579 580 -581 -582 583 -584 -586 587 588 -589 593 -594 -595 596 597 598 600 601 602 604 -605 606 607 -609 610 -611 612 613 -614 615 616 -617 -618 620 621 -622 -623 -624 625 626 -628 -630 631 632 -633 634 636 -637 638 -640 -641 -642 643 -644 646 -649 -651 652 653 654 655 656 658 -660 -661 662 -663 -664 -665 666 -667 668 669 670 -671 672 673 674 -675 677 -678 680 -681 -682 683 685 688 -689 690 692 -693 694 695 696 697 -698 699 700 701 -703 704 -706 707 708 709 710 -711 -712 713 -714 -715 -717 -720 -722 723 724 725 726 -728 -729 732 734 735 -737 739 -740 -742 743 -744 745 746 748 749 -750 -752 -754 -758 761 762 -765 766 -767 768 770 771 -772 -773 -774 -779 780 -781 782 783 -784 -785 -786 -788 -792 793 794 797 -802 -805 807 808 809 -810 813 815 -816 -817 -820 -822 823 -824 827 828 829 -831 833 -835 -836 837 839 -840 841 -842 -843 844 845 -846 -848 -850 -853 -854 856 -857 -858 860 861 -863 -864 -865 866 -867 -869 870 871 -873 874 875 -876 877 879 880 881 882 883 885 886 -887 -888 889 -890 -891 -893 894 895 -897 899 -901 904 -905 908 909 -914 915 -916 -918 -919 -920 -921 922 -923 -926 -930 933 934 -935 -936 -938 939 -940 -941 943 947 -948 -949 951 -952 -953 954 -955 957 -959 -961 -962 -963 -965 967 -969 970 -973 975 -976 -977 978 -979 981 983 -985 -986 -987 -990 -993 994 995 996 997 1000 1001 -1002 1003 1009 -1010 1011 1013 -1014 -1015 1018 1019 -1020 1021 -1023 -1024 1025 1028 -1029 1030 -1032 1033 -1034 1035 1036 -1037 1038 -1039 -1040 -1041 1042 -1043 1045 -1046 1047 1048 -1049 -1050 -1051 -1052 1053 -1054 1055 -1056 -1058 -1060 1061 1062 1064 1065 -1066 1067 1068 -1070 1072 -1073 1074 -1077 -1078 -1079 1081 -1082 1084 -1085 -1086 -1087 1088 1089 1090 -1091 1092 1093 -1094 -1095 -1097 -1098 -1099 1100 1101 1102 -1103 1107 -1108 1109 1110 -1111 1113 1115 1116 1117 -1118 -1119 -1121 -1122 -1124 1125 1129 -1130 1132 1133 -1134 1135 -1136 -1137 1138 -1140 1141 1143 1144 1146 -1148 -1149 -1150 -1151 1153 1154 1155 1156 -1157 1158 -1159 1160 -1161 -1162 1163 -1165 1166 -1167 -1169 1170 1171 -1173 1174 -1175 -1179 -1181 -1182 1183 1184 1186 1188 -1189 -1191 1194 1195 1199 -1200 -1201 1202 1203 1204 -1205 1207 -1208 1210 -1212 1213 -1214 -1215 -1216 1217 -1219 1220 1222 1224 1226 1227 -1229 -1230 1231 1233 -1235 1236 -1237 -1239 1241 -1242 -1243 1245 1247 1248 1249 1251 1252 -1254 1255 -1257 1258 -1259 -1261 1262 -1263 -1264 1265 1266 1267 -1268 1270 1271 1272 -1273 1275 -1276 -1277 1278 1279 -1280 1281 -1283 1284 -1285 -1286 1287 -1288 1289 -1290 1291 1292 -1293 1298 -1300 1301 -1302 1303 -1308 -1309 1310 -1311 1312 -1314 1315 -1317 1318 -1319 -1320 1321 1322 -1323 1326 1327 -1328 -1329 1331 1332 -1333 -1334 1335 1337 -1340 -1341 -1342 1343 -1344 -1345 -1346 -1347 1348 -1349 -1350 -1351 1352 1358 1359 -1361 1362 1365 -1366 1367 -1368 -1369 1373 1375 -1377 1379 -1382 1383 1384 -1385 1387 -1388 -1389 1392 1394 -1395 -1396 -1397 1399 -1404 -1405 -1407 1408 -1409 1410 1414 1415 -1416 1418 -1419 1421 -1422 -1423 -1425 -1428 1430 -1431 -1432 1433 -1434 -1435 -1437 -1438 1439 1440 1441 1444 -1446 1447 -1448 -1449 1451 -1452 -1453 1456 1457 1458 -1461 -1462 -1465 1466 -1467 -1469 1470 1474 1478 -1479 1480 -1483 1487 1489 1490 1492 1495 1496 1499 -1500 -1502 -1503 1504 1506 -1507 -1509 1510 1512 -1514 1515 -1516 -1517 -1519 1520 -1521 -1522 1524 -1525 1526 -1532 1534 -1535 -1537 -1538 -1541 -1542 -1543 -1544 -1547 1549 1550 1554 1555 1556 -1557 -1558 -1559 1560 1561 1562 -1570 1572 -1573 -1574 1575 1576 -1578 1579 1580 -1581 1584 
t 35211.6
